# Solution for model dual
# Objective value = 3.4341797074632127e+03
y[0] 1.0771797074632127e+03
y[1] 17
y[2] 0
y[3] 2070
gamma[0,0] 0.201449466913378
gamma[0,1] 9.2820292536787488e+00
gamma[1,0] 1.2500000000000006e-01
gamma[1,1] 0
gamma[2,0] 1.1666666666666667e+00
gamma[2,1] 7.6923076923076927e-01
gamma[3,0] 0
gamma[3,1] 0
w[0,0] 0
w[0,1] 0
w[1,0] 0
w[1,1] 0
w[2,0] 0
w[2,1] 0
w[3,0] 0
w[3,1] 1.0051260022909517e+01
sigma[0,0] 9.0201449466913374e+01
sigma[0,1] 9.9282029253678743e+01
sigma[1,0] 1.125
sigma[1,1] 1
sigma[2,0] 2.1666666666666670e+00
sigma[2,1] 1.7692307692307692e+00
sigma[3,0] 7.8455623843510438e+01
sigma[3,1] 90
beta[0,0] 0
beta[0,1] 0
beta[1,0] 0
beta[1,1] 0
beta[2,0] 0
beta[2,1] 0
beta[3,0] 1.4931161335800445e+00
beta[3,1] 0
